; faust :: corpus-study/repo_src/faust/t/functional/helpers.py :: wait_for at times_out:18 :: naive encoding (verdict: unsat)
; Generated by snf-pipeline (encoder.py) -- run with any
; SMT-LIB2-compliant solver, e.g. `z3 faust__corpus-study_repo_src_faust_t_functional_helpers.py__waitfor_times_out_L18__naive.smt2`
; benchmark generated from python API
(set-info :status unknown)
(declare-fun timeout_fires () Bool)
(declare-fun cleanup_ran () Bool)
(assert
 (= timeout_fires false))
(assert
 (let (($x27 (not cleanup_ran)))
(and timeout_fires $x27)))
(check-sat)
